# Solution for model GasLib-40
# Objective value = 3.8475219881175960e+01
loadshed[innode_1] 0
loadshed[innode_2] 0
loadshed[innode_3] 0
loadshed[innode_4] 0
loadshed[innode_5] 0
loadshed[innode_6] 0
loadshed[innode_7] 0
loadshed[innode_8] 0
loadshed[source_1] -2.2737654187226197e-01
loadshed[source_2] 1.5357409893807528e-01
loadshed[source_3] 3.1717743361663442e-01
loadshed[sink_1] 0
loadshed[sink_2] 0
loadshed[sink_3] 0
loadshed[sink_4] 0
loadshed[sink_5] 0
loadshed[sink_6] 0
loadshed[sink_7] 0
loadshed[sink_8] 0
loadshed[sink_9] 0
loadshed[sink_10] 0
loadshed[sink_11] 0
loadshed[sink_12] 1
loadshed[sink_13] 0
loadshed[sink_14] 0
loadshed[sink_15] 0
loadshed[sink_16] 0
loadshed[sink_17] 0
loadshed[sink_18] 0
loadshed[sink_19] 0
loadshed[sink_20] 0
loadshed[sink_21] 1
loadshed[sink_22] 0
loadshed[sink_23] 0
loadshed[sink_24] 3.5262490993177803e-01
loadshed[sink_25] 0
loadshed[sink_26] 0
loadshed[sink_27] 0
loadshed[sink_28] 0
loadshed[sink_29] 0
flow[source_1,sink_3] 1.9403629844251418e+02
flow[innode_1,sink_16] 1.6354166666666970e+01
flow[innode_6,sink_13] 6.53155747418624
flow[sink_13,sink_14] -9.8226091924804280e+00
flow[sink_14,sink_10] -2.6176775859147256e+01
flow[sink_25,sink_26] 1.3002945922566332e+02
flow[sink_26,sink_9] 3.2708333333334551e+01
flow[sink_9,sink_18] 1.6354166666667879e+01
flow[sink_26,sink_4] 80.9669592256621
flow[sink_4,sink_20] -1.5559231220209162e+01
flow[sink_18,sink_6] 0
flow[sink_25,innode_8] -1.6132796510917780e+02
flow[sink_6,sink_7] -4.9062500000000313e+01
flow[sink_6,sink_22] 3.2708333333333641e+01
flow[sink_7,sink_24] 1.0587280118824049e+01
flow[sink_22,sink_1] 1.6354166666666970e+01
flow[sink_24,sink_21] 0
flow[sink_21,sink_12] 0
flow[sink_7,sink_5] -7.6003946785491024e+01
flow[sink_5,sink_17] -92.3581134521577
flow[sink_17,sink_4] -8.0172023779204579e+01
flow[sink_17,sink_8] -2.8540256339619784e+01
flow[sink_3,sink_23] 16.3541666666697
flow[sink_8,sink_20] -4.4894423006286452e+01
flow[sink_25,sink_20] 7.6807820893162273e+01
flow[sink_25,sink_15] -68.3950391505012
flow[sink_15,sink_29] -1.0110337248385213e+02
flow[sink_29,sink_28] 1.6354166666667879e+01
flow[sink_29,sink_2] 0
flow[sink_2,sink_15] -1.6354166666684250e+01
flow[sink_29,innode_7] -1.3381170581718553e+02
flow[innode_4,sink_19] 4.1378151020405816e+01
flow[sink_19,innode_3] 0
flow[innode_4,innode_5] 6.6569458172075542e+01
flow[sink_27,innode_5] -6.6569458172075542e+01
flow[sink_27,sink_19] 5.0215291505408871e+01
flow[sink_10,sink_11] 3.2708333333333641e+01
flow[sink_10,innode_2] -7.5239275859147483e+01
flow[sink_10,innode_3] 0
flow[innode_6,sink_25] -6.53155747418624
flow[sink_11,innode_1] 1.6354166666666970e+01
flow[sink_19,innode_2] 7.5239275859147483e+01
flow[source_3,innode_4] 1.0794760919248137e+02
flow[source_2,innode_7] 1.3381170581718553e+02
flow[sink_3,innode_8] 1.6132796510917780e+02
pressure[innode_1] 7.5208507884887482e+01
pressure[innode_2] 7.9336915670033648e+01
pressure[innode_3] 7.9336915670033648e+01
pressure[innode_4] 81.01325
pressure[innode_5] 8.0967460016450843e+01
pressure[innode_6] 7.4140513439347757e+01
pressure[innode_7] 81.01325
pressure[innode_8] 80.3646607788594
pressure[source_1] 81.01325
pressure[source_2] 81.01325
pressure[source_3] 81.01325
pressure[sink_1] 1.0360308077591906e+01
pressure[sink_2] 7.4418903275080766e+01
pressure[sink_3] 80.3646607788594
pressure[sink_4] 5.4688266240355063e+01
pressure[sink_5] 4.4744343982023345e+01
pressure[sink_6] 1.2461385687979279e+01
pressure[sink_7] 1.3134896865679410e+01
pressure[sink_8] 5.2701253868047132e+01
pressure[sink_9] 6.3024936820266362e+01
pressure[sink_10] 7.5360209192491027e+01
pressure[sink_11] 7.5208507884887482e+01
pressure[sink_12] 1.01325
pressure[sink_13] 7.4104506054517216e+01
pressure[sink_14] 7.4122084450368462e+01
pressure[sink_15] 7.4472296024847211e+01
pressure[sink_16] 74.1868580500698
pressure[sink_17] 5.1624355850590575e+01
pressure[sink_18] 6.2433194326466662e+01
pressure[sink_19] 7.9336915670033648e+01
pressure[sink_20] 55.8297637891463
pressure[sink_21] 1.01325
pressure[sink_22] 1.1424077219946916e+01
pressure[sink_23] 8.0199942767199616e+01
pressure[sink_24] 1.01325
pressure[sink_25] 7.4140513439347757e+01
pressure[sink_26] 6.4982614988150971e+01
pressure[sink_27] 80.4150565207551
pressure[sink_28] 7.7139028802528387e+01
pressure[sink_29] 7.7434311076145562e+01
interdiction[source_1,sink_3] 0
interdiction[innode_1,sink_16] 0
interdiction[innode_6,sink_13] 0
interdiction[sink_13,sink_14] 0
interdiction[sink_14,sink_10] 0
interdiction[sink_25,sink_26] 0
interdiction[sink_26,sink_9] 0
interdiction[sink_9,sink_18] 0
interdiction[sink_26,sink_4] 0
interdiction[sink_4,sink_20] 0
interdiction[sink_18,sink_6] 1
interdiction[sink_25,innode_8] 0
interdiction[sink_6,sink_7] 0
interdiction[sink_6,sink_22] 0
interdiction[sink_7,sink_24] 0
interdiction[sink_22,sink_1] 0
interdiction[sink_24,sink_21] 0
interdiction[sink_21,sink_12] 0
interdiction[sink_7,sink_5] 0
interdiction[sink_5,sink_17] 0
interdiction[sink_17,sink_4] 0
interdiction[sink_17,sink_8] 0
interdiction[sink_3,sink_23] 0
interdiction[sink_8,sink_20] 0
interdiction[sink_25,sink_20] 0
interdiction[sink_25,sink_15] 0
interdiction[sink_15,sink_29] 0
interdiction[sink_29,sink_28] 0
interdiction[sink_29,sink_2] 1
interdiction[sink_2,sink_15] 0
interdiction[sink_29,innode_7] 0
interdiction[innode_4,sink_19] 0
interdiction[sink_19,innode_3] 0
interdiction[innode_4,innode_5] 0
interdiction[sink_27,innode_5] 0
interdiction[sink_27,sink_19] 0
interdiction[sink_10,sink_11] 0
interdiction[sink_10,innode_2] 0
interdiction[sink_10,innode_3] 1
interdiction[innode_6,sink_25] 0
interdiction[sink_11,innode_1] 0
interdiction[sink_19,innode_2] 0
interdiction[source_3,innode_4] 0
interdiction[source_2,innode_7] 0
interdiction[sink_3,innode_8] 0
WCcheckFlow[source_1,sink_3] 39
WCcheckFlow[innode_1,sink_16] 1
WCcheckFlow[innode_6,sink_13] 13
WCcheckFlow[sink_13,sink_14] 12
WCcheckFlow[sink_14,sink_10] 11
WCcheckFlow[sink_25,sink_26] 15
WCcheckFlow[sink_26,sink_9] 2
WCcheckFlow[sink_9,sink_18] 1
WCcheckFlow[sink_26,sink_4] 12
WCcheckFlow[sink_4,sink_20] 1
WCcheckFlow[sink_18,sink_6] 0
WCcheckFlow[sink_25,innode_8] -36
WCcheckFlow[sink_6,sink_7] -3
WCcheckFlow[sink_6,sink_22] 2
WCcheckFlow[sink_7,sink_24] 3
WCcheckFlow[sink_22,sink_1] 1
WCcheckFlow[sink_24,sink_21] 2
WCcheckFlow[sink_21,sink_12] 1
WCcheckFlow[sink_7,sink_5] -7
WCcheckFlow[sink_5,sink_17] -8
WCcheckFlow[sink_17,sink_4] -10
WCcheckFlow[sink_17,sink_8] 1
WCcheckFlow[sink_3,sink_23] 1
WCcheckFlow[sink_8,sink_20] 0
WCcheckFlow[sink_25,sink_20] 0
WCcheckFlow[sink_25,sink_15] 6
WCcheckFlow[sink_15,sink_29] 4
WCcheckFlow[sink_29,sink_28] 1
WCcheckFlow[sink_29,sink_2] 0
WCcheckFlow[sink_2,sink_15] -1
WCcheckFlow[sink_29,innode_7] 2
WCcheckFlow[innode_4,sink_19] -4
WCcheckFlow[sink_19,innode_3] 1
WCcheckFlow[innode_4,innode_5] 2
WCcheckFlow[sink_27,innode_5] -1
WCcheckFlow[sink_27,sink_19] 0
WCcheckFlow[sink_10,sink_11] 3
WCcheckFlow[sink_10,innode_2] 7
WCcheckFlow[sink_10,innode_3] 0
WCcheckFlow[innode_6,sink_25] -14
WCcheckFlow[sink_11,innode_1] 2
WCcheckFlow[sink_19,innode_2] -6
WCcheckFlow[source_3,innode_4] -1
WCcheckFlow[source_2,innode_7] -1
WCcheckFlow[sink_3,innode_8] 37
